CPXPARAM_TimeLimit                               1800
CPXPARAM_Read_DataCheck                          1
CPXPARAM_MIP_Strategy_HeuristicFreq              -1
Parallel mode: deterministic, using up to 8 threads for concurrent optimization.
Tried aggregator 1 time.
LP Presolve eliminated 114 rows and 20475 columns.
Reduced LP has 9996 rows, 1801 columns, and 29217 nonzeros.
Presolve time = 0.00 sec. (8.39 ticks)

Iteration log . . .
Iteration:     1   Dual objective     =           982.000000
Perturbation started.
Iteration:   201   Dual objective     =           982.000000
Initializing dual steep norms . . .
Iteration:   202   Dual objective     =           982.000092
Iteration:   511   Dual objective     =           982.014224
Iteration:   740   Dual objective     =           982.015119
Iteration:   970   Dual objective     =           982.015754
Iteration:  1211   Dual objective     =           982.016086
Iteration:  1421   Dual objective     =           982.017416
Iteration:  1615   Dual objective     =           982.017485
Iteration:  1828   Dual objective     =           982.020219
Iteration:  2098   Dual objective     =           998.403770
Iteration:  2306   Dual objective     =          1006.639458
Iteration:  2579   Dual objective     =          1009.826239
Iteration:  2788   Dual objective     =          1011.907656
Removing perturbation.

Dual simplex solved model.

